
Gurobi 6.5.2 (linux64) logging started Wed Sep 14 14:58:48 2016

Optimize a model with 41 rows, 77 columns and 159 nonzeros
Coefficient statistics:
  Matrix range    [1e+00, 2e+00]
  Objective range [2e+00, 1e+02]
  Bounds range    [1e+00, 1e+00]
  RHS range       [1e+00, 1e+00]
Presolve removed 19 rows and 16 columns
Presolve time: 0.00s
Presolved: 22 rows, 61 columns, 123 nonzeros
Variable types: 0 continuous, 61 integer (61 binary)
Found heuristic solution: objective 841.0000000

Root relaxation: objective 7.760000e+02, 26 iterations, 0.00 seconds

    Nodes    |    Current Node    |     Objective Bounds      |     Work
 Expl Unexpl |  Obj  Depth IntInf | Incumbent    BestBd   Gap | It/Node Time

     0     0  776.00000    0    2  841.00000  776.00000  7.73%     -    0s
H    0     0                     829.0000000  776.00000  6.39%     -    0s
     0     0  785.00000    0    2  829.00000  785.00000  5.31%     -    0s
     0     0  786.60000    0   11  829.00000  786.60000  5.11%     -    0s
H    0     0                     793.0000000  786.60000  0.81%     -    0s
H    0     0                     790.0000000  786.60000  0.43%     -    0s
H    0     0                     788.0000000  786.60000  0.18%     -    0s
     0     0  786.75000    0   11  788.00000  786.75000  0.16%     -    0s

Cutting planes:
  Gomory: 1
  Cover: 6
  MIR: 1
  Lazy constraints: 4

Explored 0 nodes (39 simplex iterations) in 0.00 seconds
Thread count was 8 (of 8 available processors)

Optimal solution found (tolerance 1.00e-04)
Best objective 7.880000000000e+02, best bound 7.880000000000e+02, gap 0.0%
